c max 190  191  192  193  194  195  196  197  211  213  215  216 0
c ind 682  683  686  687  688  691  692  693  696  697  698  701  702  703  706  707  708  711  712  715  716  717  720  721  722  725  726  727  730  731  732  735  736  737  740  741  744  745  746  747  750  751  752  755  756  757  758  761  762  763  764  767  768  769  770  771  773  774  775  776  777 0
c This is a CNF SAT formula in the DIMACS CNF format,
c produced with the bc2cnf translator by Tommi Junttila;
c see http://users.ics.aalto.fi/tjunttil/circuits/index.html
c phi_Gamma_det <-> 1
c phi_Gamma <-> 1
c phi_T_transitions <-> 1
c phi_T_transitions_consistency <-> 1
c phi_T <-> 1
c phi_sim_leaves <-> 1
c phi_sim_transition <-> 1
c phi_sim <-> 1
c FORMULA <-> 1
c pi_0 <-> 2
c tau_0_3_approved_1 <-> 190
c tau_0_3_approved_0 <-> 191
c tau_0_2_approved_1 <-> 192
c tau_0_2_approved_0 <-> 193
c tau_0_1_approved_1 <-> 194
c tau_0_1_approved_0 <-> 195
c tau_0_0_approved_1 <-> 196
c tau_0_0_approved_0 <-> 197
c phi_T_feature_det <-> 198
c lam_0_credit_score <-> 211
c lam_0_dependents <-> 213
c lam_0_monthly_income <-> 215
c lam_0_age <-> 216
c phi_Gamma_val <-> 680
c credit_score_P76700 <-> 682
c monthly_income_P627607 <-> 683
c credit_score_P75100 <-> 686
c monthly_income_P611109 <-> 687
c age_P3500 <-> 688
c credit_score_P35600 <-> 691
c dependents_P300 <-> 692
c monthly_income_P715479 <-> 693
c credit_score_P74100 <-> 696
c monthly_income_P721158 <-> 697
c age_P1800 <-> 698
c credit_score_P70900 <-> 701
c monthly_income_P848945 <-> 702
c age_P2300 <-> 703
c credit_score_P83500 <-> 706
c monthly_income_P863017 <-> 707
c age_P2600 <-> 708
c credit_score_P44700 <-> 711
c monthly_income_P761037 <-> 712
c credit_score_P67400 <-> 715
c monthly_income_P768994 <-> 716
c age_P3000 <-> 717
c credit_score_P68100 <-> 720
c monthly_income_P928332 <-> 721
c age_P2200 <-> 722
c credit_score_P33400 <-> 725
c monthly_income_P735921 <-> 726
c age_P7400 <-> 727
c credit_score_P60400 <-> 730
c monthly_income_P566540 <-> 731
c age_P5800 <-> 732
c credit_score_P73100 <-> 735
c monthly_income_P167200 <-> 736
c age_P3800 <-> 737
c credit_score_P32700 <-> 740
c monthly_income_P945243 <-> 741
c credit_score_P57700 <-> 744
c dependents_P0 <-> 745
c monthly_income_P303753 <-> 746
c age_P4800 <-> 747
c credit_score_P62200 <-> 750
c monthly_income_P603747 <-> 751
c age_P6800 <-> 752
c credit_score_P73200 <-> 755
c dependents_P100 <-> 756
c monthly_income_P473622 <-> 757
c age_P6600 <-> 758
c credit_score_P75400 <-> 761
c dependents_P400 <-> 762
c monthly_income_P360694 <-> 763
c age_P4400 <-> 764
c pi_approved_0 <-> 767
c approved_P0 <-> 767
c credit_score_P39800 <-> 768
c dependents_P600 <-> 769
c monthly_income_P592979 <-> 770
c age_P4100 <-> 771
c pi_approved_1 <-> 773
c approved_P100 <-> 773
c credit_score_P35300 <-> 774
c dependents_P200 <-> 775
c monthly_income_P728777 <-> 776
c age_P7700 <-> 777
p cnf 777 2176
1 0
2 -3 0
2 -12 0
-2 12 3 0
2 0
-3 4 0
-3 96 0
3 -96 -4 0
-4 5 0
-4 211 0
4 -211 -5 0
5 -6 0
5 -138 0
-5 138 6 0
6 -7 0
6 -110 0
-6 110 7 0
7 -8 0
7 -146 0
-7 146 8 0
8 -9 0
8 -150 0
-8 150 9 0
9 -10 0
9 -154 0
-9 154 10 0
10 -11 0
10 -118 0
-10 118 11 0
11 -88 0
11 -126 0
-11 126 88 0
12 -13 0
12 -19 0
-12 19 13 0
-13 14 0
-13 105 0
13 -105 -14 0
-14 15 0
-14 211 0
14 -211 -15 0
15 -16 0
15 -114 0
-15 114 16 0
16 -17 0
16 -161 0
-16 161 17 0
17 -18 0
17 -100 0
-17 100 18 0
18 -84 0
18 -122 0
-18 122 84 0
19 -20 0
19 -27 0
-19 27 20 0
-20 21 0
-20 133 0
20 -133 -21 0
-21 22 0
-21 211 0
21 -211 -22 0
22 -23 0
22 -142 0
-22 142 23 0
23 -24 0
23 -158 0
-23 158 24 0
24 -25 0
24 -76 0
-24 76 25 0
25 -26 0
25 -80 0
-25 80 26 0
26 -91 0
26 -129 0
-26 129 91 0
27 -28 0
27 -38 0
-27 38 28 0
-28 29 0
-28 105 0
28 -105 -29 0
-29 30 0
-29 213 0
29 -213 -30 0
30 -31 0
30 -138 0
-30 138 31 0
31 -32 0
31 -110 0
-31 110 32 0
32 -33 0
32 -142 0
-32 142 33 0
33 -34 0
33 -150 0
-33 150 34 0
34 -35 0
34 -158 0
-34 158 35 0
35 -36 0
35 -161 0
-35 161 36 0
36 -37 0
36 -76 0
-36 76 37 0
37 -118 0
37 -125 0
-37 125 118 0
38 -39 0
38 -47 0
-38 47 39 0
-39 40 0
-39 133 0
39 -133 -40 0
-40 41 0
-40 213 0
40 -213 -41 0
41 -42 0
41 -146 0
-41 146 42 0
42 -43 0
42 -154 0
-42 154 43 0
43 -44 0
43 -114 0
-43 114 44 0
44 -45 0
44 -100 0
-44 100 45 0
45 -46 0
45 -80 0
-45 80 46 0
46 -83 0
46 -122 0
-46 122 83 0
47 -48 0
47 -62 0
-47 62 48 0
-48 49 0
-48 105 0
48 -105 -49 0
-49 50 0
-49 215 0
49 -215 -50 0
50 -51 0
50 -138 0
-50 138 51 0
51 -52 0
51 -110 0
-51 110 52 0
52 -53 0
52 -142 0
-52 142 53 0
53 -54 0
53 -146 0
-53 146 54 0
54 -55 0
54 -150 0
-54 150 55 0
55 -56 0
55 -154 0
-55 154 56 0
56 -57 0
56 -158 0
-56 158 57 0
57 -58 0
57 -114 0
-57 114 58 0
58 -59 0
58 -161 0
-58 161 59 0
59 -60 0
59 -76 0
-59 76 60 0
60 -61 0
60 -80 0
-60 80 61 0
61 -84 0
61 -91 0
-61 91 84 0
62 -63 0
62 -69 0
-62 69 63 0
-63 64 0
-63 133 0
63 -133 -64 0
-64 65 0
-64 215 0
64 -215 -65 0
65 -66 0
65 -100 0
-65 100 66 0
66 -67 0
66 -118 0
-66 118 67 0
67 -68 0
67 -122 0
-67 122 68 0
68 -88 0
68 -125 0
-68 125 88 0
69 -70 0
69 -94 0
-69 94 70 0
-70 71 0
-70 74 0
70 -74 -71 0
-71 72 0
-71 73 0
71 -73 -72 0
72 190 0
72 -773 0
-72 773 -190 0
73 191 0
73 -767 0
-73 767 -191 0
-74 75 0
-74 216 0
74 -216 -75 0
75 -76 0
75 -79 0
-75 79 76 0
-76 77 0
-76 725 0
76 -725 -77 0
-77 78 0
-77 762 0
77 -762 -78 0
-78 726 0
-78 727 0
78 -727 -726 0
79 -80 0
79 -83 0
-79 83 80 0
-80 81 0
-80 740 0
80 -740 -81 0
-81 82 0
-81 756 0
81 -756 -82 0
-82 741 0
-82 752 0
82 -752 -741 0
83 -84 0
83 -87 0
-83 87 84 0
-84 85 0
-84 750 0
84 -750 -85 0
-85 86 0
-85 775 0
85 -775 -86 0
-86 751 0
-86 752 0
86 -752 -751 0
87 -88 0
87 -91 0
-87 91 88 0
-88 89 0
-88 755 0
88 -755 -89 0
-89 90 0
-89 756 0
89 -756 -90 0
-90 757 0
-90 758 0
90 -758 -757 0
-91 92 0
-91 774 0
91 -774 -92 0
-92 93 0
-92 775 0
92 -775 -93 0
-93 776 0
-93 777 0
93 -777 -776 0
94 -95 0
94 -103 0
-94 103 95 0
-95 96 0
-95 99 0
95 -99 -96 0
-96 97 0
-96 98 0
96 -98 -97 0
97 192 0
97 -773 0
-97 773 -192 0
98 193 0
98 -767 0
-98 767 -193 0
-99 100 0
-99 216 0
99 -216 -100 0
-100 101 0
-100 730 0
100 -730 -101 0
-101 102 0
-101 756 0
101 -756 -102 0
-102 731 0
-102 732 0
102 -732 -731 0
103 -104 0
103 -132 0
-103 132 104 0
-104 105 0
-104 108 0
104 -108 -105 0
-105 106 0
-105 107 0
105 -107 -106 0
106 194 0
106 -773 0
-106 773 -194 0
107 195 0
107 -767 0
-107 767 -195 0
-108 109 0
-108 216 0
108 -216 -109 0
109 -110 0
109 -113 0
-109 113 110 0
-110 111 0
-110 686 0
110 -686 -111 0
-111 112 0
-111 692 0
111 -692 -112 0
-112 687 0
-112 688 0
112 -688 -687 0
113 -114 0
113 -117 0
-113 117 114 0
-114 115 0
-114 715 0
114 -715 -115 0
-115 116 0
-115 775 0
115 -775 -116 0
-116 716 0
-116 717 0
116 -717 -716 0
117 -118 0
117 -121 0
-117 121 118 0
-118 119 0
-118 735 0
118 -735 -119 0
-119 120 0
-119 769 0
119 -769 -120 0
-120 736 0
-120 737 0
120 -737 -736 0
121 -122 0
121 -125 0
-121 125 122 0
-122 123 0
-122 744 0
122 -744 -123 0
-123 124 0
-123 745 0
123 -745 -124 0
-124 746 0
-124 747 0
124 -747 -746 0
125 -126 0
125 -129 0
-125 129 126 0
-126 127 0
-126 761 0
126 -761 -127 0
-127 128 0
-127 762 0
127 -762 -128 0
-128 763 0
-128 764 0
128 -764 -763 0
-129 130 0
-129 768 0
129 -768 -130 0
-130 131 0
-130 769 0
130 -769 -131 0
-131 770 0
-131 771 0
131 -771 -770 0
-132 133 0
-132 136 0
132 -136 -133 0
-133 134 0
-133 135 0
133 -135 -134 0
134 196 0
134 -773 0
-134 773 -196 0
135 197 0
135 -767 0
-135 767 -197 0
-136 137 0
-136 216 0
136 -216 -137 0
137 -138 0
137 -141 0
-137 141 138 0
-138 139 0
-138 682 0
138 -682 -139 0
-139 140 0
-139 762 0
139 -762 -140 0
-140 683 0
-140 698 0
140 -698 -683 0
141 -142 0
141 -145 0
-141 145 142 0
-142 143 0
-142 691 0
142 -691 -143 0
-143 144 0
-143 692 0
143 -692 -144 0
-144 693 0
-144 698 0
144 -698 -693 0
145 -146 0
145 -149 0
-145 149 146 0
-146 147 0
-146 696 0
146 -696 -147 0
-147 148 0
-147 745 0
147 -745 -148 0
-148 697 0
-148 698 0
148 -698 -697 0
149 -150 0
149 -153 0
-149 153 150 0
-150 151 0
-150 701 0
150 -701 -151 0
-151 152 0
-151 769 0
151 -769 -152 0
-152 702 0
-152 703 0
152 -703 -702 0
153 -154 0
153 -157 0
-153 157 154 0
-154 155 0
-154 706 0
154 -706 -155 0
-155 156 0
-155 775 0
155 -775 -156 0
-156 707 0
-156 708 0
156 -708 -707 0
157 -158 0
157 -161 0
-157 161 158 0
-158 159 0
-158 711 0
158 -711 -159 0
-159 160 0
-159 762 0
159 -762 -160 0
-160 712 0
-160 722 0
160 -722 -712 0
-161 162 0
-161 720 0
161 -720 -162 0
-162 163 0
-162 769 0
162 -769 -163 0
-163 721 0
-163 722 0
163 -722 -721 0
164 211 0
164 -165 0
-164 165 -211 0
164 0
-165 -190 0
-165 -191 0
165 191 190 0
166 213 0
166 -167 0
-166 167 -213 0
166 0
-167 -190 0
-167 168 0
167 -168 190 0
-168 -191 0
-168 169 0
168 -169 191 0
-169 -192 0
-169 -193 0
169 193 192 0
170 -167 0
170 215 0
-170 -215 167 0
170 0
171 211 0
171 -172 0
-171 172 -211 0
171 0
-172 173 0
-172 176 0
172 -176 -173 0
173 -174 0
173 -175 0
-173 175 174 0
-174 -193 0
-174 192 0
174 -192 193 0
-175 -192 0
-175 193 0
175 -193 192 0
-176 177 0
-176 180 0
176 -180 -177 0
177 -178 0
177 -179 0
-177 179 178 0
-178 -195 0
-178 194 0
178 -194 195 0
-179 -194 0
-179 195 0
179 -195 194 0
180 -181 0
180 -182 0
-180 182 181 0
-181 -197 0
-181 196 0
181 -196 197 0
-182 -196 0
-182 197 0
182 -197 196 0
183 213 0
183 -176 0
-183 176 -213 0
183 0
184 215 0
184 -176 0
-184 176 -215 0
184 0
185 216 0
185 -186 0
-185 186 -216 0
185 0
-186 172 0
-186 187 0
186 -187 -172 0
187 -188 0
187 -189 0
-187 189 188 0
-188 -191 0
-188 190 0
188 -190 191 0
-189 -190 0
-189 191 0
189 -191 190 0
198 -199 0
198 -202 0
-198 202 199 0
198 0
-199 -213 0
-199 200 0
199 -200 213 0
-200 -215 0
-200 201 0
200 -201 215 0
-201 -216 0
-201 211 0
201 -211 216 0
202 -203 0
202 -206 0
-202 206 203 0
-203 -211 0
-203 204 0
203 -204 211 0
-204 -215 0
-204 205 0
204 -205 215 0
-205 -216 0
-205 213 0
205 -213 216 0
206 -207 0
206 -210 0
-206 210 207 0
-207 -211 0
-207 208 0
207 -208 211 0
-208 -213 0
-208 209 0
208 -209 213 0
-209 -216 0
-209 215 0
209 -215 216 0
-210 -211 0
-210 212 0
210 -212 211 0
-212 -213 0
-212 214 0
212 -214 213 0
-214 -215 0
-214 216 0
214 -216 215 0
217 773 0
217 767 0
-217 -767 -773 0
217 0
218 686 0
218 682 0
-218 -682 -686 0
218 0
219 691 0
219 -220 0
-219 220 -691 0
219 0
-220 -686 0
-220 -682 0
220 682 686 0
221 696 0
221 -222 0
-221 222 -696 0
221 0
-222 -682 0
-222 223 0
222 -223 682 0
-223 -686 0
-223 -691 0
223 691 686 0
224 701 0
224 -225 0
-224 225 -701 0
224 0
-225 -682 0
-225 226 0
225 -226 682 0
-226 -686 0
-226 227 0
226 -227 686 0
-227 -691 0
-227 -696 0
227 696 691 0
228 706 0
228 -229 0
-228 229 -706 0
228 0
-229 -682 0
-229 230 0
229 -230 682 0
-230 -686 0
-230 231 0
230 -231 686 0
-231 -691 0
-231 232 0
231 -232 691 0
-232 -696 0
-232 -701 0
232 701 696 0
233 711 0
233 -234 0
-233 234 -711 0
233 0
-234 -682 0
-234 235 0
234 -235 682 0
-235 -686 0
-235 236 0
235 -236 686 0
-236 -691 0
-236 237 0
236 -237 691 0
-237 -696 0
-237 238 0
237 -238 696 0
-238 -701 0
-238 -706 0
238 706 701 0
239 715 0
239 -240 0
-239 240 -715 0
239 0
-240 -682 0
-240 241 0
240 -241 682 0
-241 -686 0
-241 242 0
241 -242 686 0
-242 -691 0
-242 243 0
242 -243 691 0
-243 -696 0
-243 244 0
243 -244 696 0
-244 -701 0
-244 245 0
244 -245 701 0
-245 -706 0
-245 -711 0
245 711 706 0
246 720 0
246 -247 0
-246 247 -720 0
246 0
-247 -682 0
-247 248 0
247 -248 682 0
-248 -686 0
-248 249 0
248 -249 686 0
-249 -691 0
-249 250 0
249 -250 691 0
-250 -696 0
-250 251 0
250 -251 696 0
-251 -701 0
-251 252 0
251 -252 701 0
-252 -706 0
-252 253 0
252 -253 706 0
-253 -711 0
-253 -715 0
253 715 711 0
254 725 0
254 -255 0
-254 255 -725 0
254 0
-255 -682 0
-255 256 0
255 -256 682 0
-256 -686 0
-256 257 0
256 -257 686 0
-257 -691 0
-257 258 0
257 -258 691 0
-258 -696 0
-258 259 0
258 -259 696 0
-259 -701 0
-259 260 0
259 -260 701 0
-260 -706 0
-260 261 0
260 -261 706 0
-261 -711 0
-261 262 0
261 -262 711 0
-262 -715 0
-262 -720 0
262 720 715 0
263 730 0
263 -264 0
-263 264 -730 0
263 0
-264 -682 0
-264 265 0
264 -265 682 0
-265 -686 0
-265 266 0
265 -266 686 0
-266 -691 0
-266 267 0
266 -267 691 0
-267 -696 0
-267 268 0
267 -268 696 0
-268 -701 0
-268 269 0
268 -269 701 0
-269 -706 0
-269 270 0
269 -270 706 0
-270 -711 0
-270 271 0
270 -271 711 0
-271 -715 0
-271 272 0
271 -272 715 0
-272 -720 0
-272 -725 0
272 725 720 0
273 735 0
273 -274 0
-273 274 -735 0
273 0
-274 -682 0
-274 275 0
274 -275 682 0
-275 -686 0
-275 276 0
275 -276 686 0
-276 -691 0
-276 277 0
276 -277 691 0
-277 -696 0
-277 278 0
277 -278 696 0
-278 -701 0
-278 279 0
278 -279 701 0
-279 -706 0
-279 280 0
279 -280 706 0
-280 -711 0
-280 281 0
280 -281 711 0
-281 -715 0
-281 282 0
281 -282 715 0
-282 -720 0
-282 283 0
282 -283 720 0
-283 -725 0
-283 -730 0
283 730 725 0
284 740 0
284 -285 0
-284 285 -740 0
284 0
-285 -682 0
-285 286 0
285 -286 682 0
-286 -686 0
-286 287 0
286 -287 686 0
-287 -691 0
-287 288 0
287 -288 691 0
-288 -696 0
-288 289 0
288 -289 696 0
-289 -701 0
-289 290 0
289 -290 701 0
-290 -706 0
-290 291 0
290 -291 706 0
-291 -711 0
-291 292 0
291 -292 711 0
-292 -715 0
-292 293 0
292 -293 715 0
-293 -720 0
-293 294 0
293 -294 720 0
-294 -725 0
-294 295 0
294 -295 725 0
-295 -730 0
-295 -735 0
295 735 730 0
296 744 0
296 -297 0
-296 297 -744 0
296 0
-297 -682 0
-297 298 0
297 -298 682 0
-298 -686 0
-298 299 0
298 -299 686 0
-299 -691 0
-299 300 0
299 -300 691 0
-300 -696 0
-300 301 0
300 -301 696 0
-301 -701 0
-301 302 0
301 -302 701 0
-302 -706 0
-302 303 0
302 -303 706 0
-303 -711 0
-303 304 0
303 -304 711 0
-304 -715 0
-304 305 0
304 -305 715 0
-305 -720 0
-305 306 0
305 -306 720 0
-306 -725 0
-306 307 0
306 -307 725 0
-307 -730 0
-307 308 0
307 -308 730 0
-308 -735 0
-308 -740 0
308 740 735 0
309 750 0
309 -310 0
-309 310 -750 0
309 0
-310 -682 0
-310 311 0
310 -311 682 0
-311 -686 0
-311 312 0
311 -312 686 0
-312 -691 0
-312 313 0
312 -313 691 0
-313 -696 0
-313 314 0
313 -314 696 0
-314 -701 0
-314 315 0
314 -315 701 0
-315 -706 0
-315 316 0
315 -316 706 0
-316 -711 0
-316 317 0
316 -317 711 0
-317 -715 0
-317 318 0
317 -318 715 0
-318 -720 0
-318 319 0
318 -319 720 0
-319 -725 0
-319 320 0
319 -320 725 0
-320 -730 0
-320 321 0
320 -321 730 0
-321 -735 0
-321 322 0
321 -322 735 0
-322 -740 0
-322 -744 0
322 744 740 0
323 755 0
323 -324 0
-323 324 -755 0
323 0
-324 -682 0
-324 325 0
324 -325 682 0
-325 -686 0
-325 326 0
325 -326 686 0
-326 -691 0
-326 327 0
326 -327 691 0
-327 -696 0
-327 328 0
327 -328 696 0
-328 -701 0
-328 329 0
328 -329 701 0
-329 -706 0
-329 330 0
329 -330 706 0
-330 -711 0
-330 331 0
330 -331 711 0
-331 -715 0
-331 332 0
331 -332 715 0
-332 -720 0
-332 333 0
332 -333 720 0
-333 -725 0
-333 334 0
333 -334 725 0
-334 -730 0
-334 335 0
334 -335 730 0
-335 -735 0
-335 336 0
335 -336 735 0
-336 -740 0
-336 337 0
336 -337 740 0
-337 -744 0
-337 -750 0
337 750 744 0
338 761 0
338 -339 0
-338 339 -761 0
338 0
-339 -682 0
-339 340 0
339 -340 682 0
-340 -686 0
-340 341 0
340 -341 686 0
-341 -691 0
-341 342 0
341 -342 691 0
-342 -696 0
-342 343 0
342 -343 696 0
-343 -701 0
-343 344 0
343 -344 701 0
-344 -706 0
-344 345 0
344 -345 706 0
-345 -711 0
-345 346 0
345 -346 711 0
-346 -715 0
-346 347 0
346 -347 715 0
-347 -720 0
-347 348 0
347 -348 720 0
-348 -725 0
-348 349 0
348 -349 725 0
-349 -730 0
-349 350 0
349 -350 730 0
-350 -735 0
-350 351 0
350 -351 735 0
-351 -740 0
-351 352 0
351 -352 740 0
-352 -744 0
-352 353 0
352 -353 744 0
-353 -750 0
-353 -755 0
353 755 750 0
354 768 0
354 -355 0
-354 355 -768 0
354 0
-355 -682 0
-355 356 0
355 -356 682 0
-356 -686 0
-356 357 0
356 -357 686 0
-357 -691 0
-357 358 0
357 -358 691 0
-358 -696 0
-358 359 0
358 -359 696 0
-359 -701 0
-359 360 0
359 -360 701 0
-360 -706 0
-360 361 0
360 -361 706 0
-361 -711 0
-361 362 0
361 -362 711 0
-362 -715 0
-362 363 0
362 -363 715 0
-363 -720 0
-363 364 0
363 -364 720 0
-364 -725 0
-364 365 0
364 -365 725 0
-365 -730 0
-365 366 0
365 -366 730 0
-366 -735 0
-366 367 0
366 -367 735 0
-367 -740 0
-367 368 0
367 -368 740 0
-368 -744 0
-368 369 0
368 -369 744 0
-369 -750 0
-369 370 0
369 -370 750 0
-370 -755 0
-370 -761 0
370 761 755 0
371 774 0
371 -372 0
-371 372 -774 0
371 0
-372 -682 0
-372 373 0
372 -373 682 0
-373 -686 0
-373 374 0
373 -374 686 0
-374 -691 0
-374 375 0
374 -375 691 0
-375 -696 0
-375 376 0
375 -376 696 0
-376 -701 0
-376 377 0
376 -377 701 0
-377 -706 0
-377 378 0
377 -378 706 0
-378 -711 0
-378 379 0
378 -379 711 0
-379 -715 0
-379 380 0
379 -380 715 0
-380 -720 0
-380 381 0
380 -381 720 0
-381 -725 0
-381 382 0
381 -382 725 0
-382 -730 0
-382 383 0
382 -383 730 0
-383 -735 0
-383 384 0
383 -384 735 0
-384 -740 0
-384 385 0
384 -385 740 0
-385 -744 0
-385 386 0
385 -386 744 0
-386 -750 0
-386 387 0
386 -387 750 0
-387 -755 0
-387 388 0
387 -388 755 0
-388 -761 0
-388 -768 0
388 768 761 0
389 745 0
389 692 0
-389 -692 -745 0
389 0
390 756 0
390 -391 0
-390 391 -756 0
390 0
-391 -745 0
-391 -692 0
391 692 745 0
392 762 0
392 -393 0
-392 393 -762 0
392 0
-393 -692 0
-393 394 0
393 -394 692 0
-394 -745 0
-394 -756 0
394 756 745 0
395 769 0
395 -396 0
-395 396 -769 0
395 0
-396 -692 0
-396 397 0
396 -397 692 0
-397 -745 0
-397 398 0
397 -398 745 0
-398 -756 0
-398 -762 0
398 762 756 0
399 775 0
399 -400 0
-399 400 -775 0
399 0
-400 -692 0
-400 401 0
400 -401 692 0
-401 -745 0
-401 402 0
401 -402 745 0
-402 -756 0
-402 403 0
402 -403 756 0
-403 -762 0
-403 -769 0
403 769 762 0
404 687 0
404 683 0
-404 -683 -687 0
404 0
405 693 0
405 -406 0
-405 406 -693 0
405 0
-406 -687 0
-406 -683 0
406 683 687 0
407 697 0
407 -408 0
-407 408 -697 0
407 0
-408 -683 0
-408 409 0
408 -409 683 0
-409 -687 0
-409 -693 0
409 693 687 0
410 702 0
410 -411 0
-410 411 -702 0
410 0
-411 -683 0
-411 412 0
411 -412 683 0
-412 -687 0
-412 413 0
412 -413 687 0
-413 -693 0
-413 -697 0
413 697 693 0
414 707 0
414 -415 0
-414 415 -707 0
414 0
-415 -683 0
-415 416 0
415 -416 683 0
-416 -687 0
-416 417 0
416 -417 687 0
-417 -693 0
-417 418 0
417 -418 693 0
-418 -697 0
-418 -702 0
418 702 697 0
419 712 0
419 -420 0
-419 420 -712 0
419 0
-420 -683 0
-420 421 0
420 -421 683 0
-421 -687 0
-421 422 0
421 -422 687 0
-422 -693 0
-422 423 0
422 -423 693 0
-423 -697 0
-423 424 0
423 -424 697 0
-424 -702 0
-424 -707 0
424 707 702 0
425 716 0
425 -426 0
-425 426 -716 0
425 0
-426 -683 0
-426 427 0
426 -427 683 0
-427 -687 0
-427 428 0
427 -428 687 0
-428 -693 0
-428 429 0
428 -429 693 0
-429 -697 0
-429 430 0
429 -430 697 0
-430 -702 0
-430 431 0
430 -431 702 0
-431 -707 0
-431 -712 0
431 712 707 0
432 721 0
432 -433 0
-432 433 -721 0
432 0
-433 -683 0
-433 434 0
433 -434 683 0
-434 -687 0
-434 435 0
434 -435 687 0
-435 -693 0
-435 436 0
435 -436 693 0
-436 -697 0
-436 437 0
436 -437 697 0
-437 -702 0
-437 438 0
437 -438 702 0
-438 -707 0
-438 439 0
438 -439 707 0
-439 -712 0
-439 -716 0
439 716 712 0
440 726 0
440 -441 0
-440 441 -726 0
440 0
-441 -683 0
-441 442 0
441 -442 683 0
-442 -687 0
-442 443 0
442 -443 687 0
-443 -693 0
-443 444 0
443 -444 693 0
-444 -697 0
-444 445 0
444 -445 697 0
-445 -702 0
-445 446 0
445 -446 702 0
-446 -707 0
-446 447 0
446 -447 707 0
-447 -712 0
-447 448 0
447 -448 712 0
-448 -716 0
-448 -721 0
448 721 716 0
449 731 0
449 -450 0
-449 450 -731 0
449 0
-450 -683 0
-450 451 0
450 -451 683 0
-451 -687 0
-451 452 0
451 -452 687 0
-452 -693 0
-452 453 0
452 -453 693 0
-453 -697 0
-453 454 0
453 -454 697 0
-454 -702 0
-454 455 0
454 -455 702 0
-455 -707 0
-455 456 0
455 -456 707 0
-456 -712 0
-456 457 0
456 -457 712 0
-457 -716 0
-457 458 0
457 -458 716 0
-458 -721 0
-458 -726 0
458 726 721 0
459 736 0
459 -460 0
-459 460 -736 0
459 0
-460 -683 0
-460 461 0
460 -461 683 0
-461 -687 0
-461 462 0
461 -462 687 0
-462 -693 0
-462 463 0
462 -463 693 0
-463 -697 0
-463 464 0
463 -464 697 0
-464 -702 0
-464 465 0
464 -465 702 0
-465 -707 0
-465 466 0
465 -466 707 0
-466 -712 0
-466 467 0
466 -467 712 0
-467 -716 0
-467 468 0
467 -468 716 0
-468 -721 0
-468 469 0
468 -469 721 0
-469 -726 0
-469 -731 0
469 731 726 0
470 741 0
470 -471 0
-470 471 -741 0
470 0
-471 -683 0
-471 472 0
471 -472 683 0
-472 -687 0
-472 473 0
472 -473 687 0
-473 -693 0
-473 474 0
473 -474 693 0
-474 -697 0
-474 475 0
474 -475 697 0
-475 -702 0
-475 476 0
475 -476 702 0
-476 -707 0
-476 477 0
476 -477 707 0
-477 -712 0
-477 478 0
477 -478 712 0
-478 -716 0
-478 479 0
478 -479 716 0
-479 -721 0
-479 480 0
479 -480 721 0
-480 -726 0
-480 481 0
480 -481 726 0
-481 -731 0
-481 -736 0
481 736 731 0
482 746 0
482 -483 0
-482 483 -746 0
482 0
-483 -683 0
-483 484 0
483 -484 683 0
-484 -687 0
-484 485 0
484 -485 687 0
-485 -693 0
-485 486 0
485 -486 693 0
-486 -697 0
-486 487 0
486 -487 697 0
-487 -702 0
-487 488 0
487 -488 702 0
-488 -707 0
-488 489 0
488 -489 707 0
-489 -712 0
-489 490 0
489 -490 712 0
-490 -716 0
-490 491 0
490 -491 716 0
-491 -721 0
-491 492 0
491 -492 721 0
-492 -726 0
-492 493 0
492 -493 726 0
-493 -731 0
-493 494 0
493 -494 731 0
-494 -736 0
-494 -741 0
494 741 736 0
495 751 0
495 -496 0
-495 496 -751 0
495 0
-496 -683 0
-496 497 0
496 -497 683 0
-497 -687 0
-497 498 0
497 -498 687 0
-498 -693 0
-498 499 0
498 -499 693 0
-499 -697 0
-499 500 0
499 -500 697 0
-500 -702 0
-500 501 0
500 -501 702 0
-501 -707 0
-501 502 0
501 -502 707 0
-502 -712 0
-502 503 0
502 -503 712 0
-503 -716 0
-503 504 0
503 -504 716 0
-504 -721 0
-504 505 0
504 -505 721 0
-505 -726 0
-505 506 0
505 -506 726 0
-506 -731 0
-506 507 0
506 -507 731 0
-507 -736 0
-507 508 0
507 -508 736 0
-508 -741 0
-508 -746 0
508 746 741 0
509 757 0
509 -510 0
-509 510 -757 0
509 0
-510 -683 0
-510 511 0
510 -511 683 0
-511 -687 0
-511 512 0
511 -512 687 0
-512 -693 0
-512 513 0
512 -513 693 0
-513 -697 0
-513 514 0
513 -514 697 0
-514 -702 0
-514 515 0
514 -515 702 0
-515 -707 0
-515 516 0
515 -516 707 0
-516 -712 0
-516 517 0
516 -517 712 0
-517 -716 0
-517 518 0
517 -518 716 0
-518 -721 0
-518 519 0
518 -519 721 0
-519 -726 0
-519 520 0
519 -520 726 0
-520 -731 0
-520 521 0
520 -521 731 0
-521 -736 0
-521 522 0
521 -522 736 0
-522 -741 0
-522 523 0
522 -523 741 0
-523 -746 0
-523 -751 0
523 751 746 0
524 763 0
524 -525 0
-524 525 -763 0
524 0
-525 -683 0
-525 526 0
525 -526 683 0
-526 -687 0
-526 527 0
526 -527 687 0
-527 -693 0
-527 528 0
527 -528 693 0
-528 -697 0
-528 529 0
528 -529 697 0
-529 -702 0
-529 530 0
529 -530 702 0
-530 -707 0
-530 531 0
530 -531 707 0
-531 -712 0
-531 532 0
531 -532 712 0
-532 -716 0
-532 533 0
532 -533 716 0
-533 -721 0
-533 534 0
533 -534 721 0
-534 -726 0
-534 535 0
534 -535 726 0
-535 -731 0
-535 536 0
535 -536 731 0
-536 -736 0
-536 537 0
536 -537 736 0
-537 -741 0
-537 538 0
537 -538 741 0
-538 -746 0
-538 539 0
538 -539 746 0
-539 -751 0
-539 -757 0
539 757 751 0
540 770 0
540 -541 0
-540 541 -770 0
540 0
-541 -683 0
-541 542 0
541 -542 683 0
-542 -687 0
-542 543 0
542 -543 687 0
-543 -693 0
-543 544 0
543 -544 693 0
-544 -697 0
-544 545 0
544 -545 697 0
-545 -702 0
-545 546 0
545 -546 702 0
-546 -707 0
-546 547 0
546 -547 707 0
-547 -712 0
-547 548 0
547 -548 712 0
-548 -716 0
-548 549 0
548 -549 716 0
-549 -721 0
-549 550 0
549 -550 721 0
-550 -726 0
-550 551 0
550 -551 726 0
-551 -731 0
-551 552 0
551 -552 731 0
-552 -736 0
-552 553 0
552 -553 736 0
-553 -741 0
-553 554 0
553 -554 741 0
-554 -746 0
-554 555 0
554 -555 746 0
-555 -751 0
-555 556 0
555 -556 751 0
-556 -757 0
-556 -763 0
556 763 757 0
557 776 0
557 -558 0
-557 558 -776 0
557 0
-558 -683 0
-558 559 0
558 -559 683 0
-559 -687 0
-559 560 0
559 -560 687 0
-560 -693 0
-560 561 0
560 -561 693 0
-561 -697 0
-561 562 0
561 -562 697 0
-562 -702 0
-562 563 0
562 -563 702 0
-563 -707 0
-563 564 0
563 -564 707 0
-564 -712 0
-564 565 0
564 -565 712 0
-565 -716 0
-565 566 0
565 -566 716 0
-566 -721 0
-566 567 0
566 -567 721 0
-567 -726 0
-567 568 0
567 -568 726 0
-568 -731 0
-568 569 0
568 -569 731 0
-569 -736 0
-569 570 0
569 -570 736 0
-570 -741 0
-570 571 0
570 -571 741 0
-571 -746 0
-571 572 0
571 -572 746 0
-572 -751 0
-572 573 0
572 -573 751 0
-573 -757 0
-573 574 0
573 -574 757 0
-574 -763 0
-574 -770 0
574 770 763 0
575 698 0
575 688 0
-575 -688 -698 0
575 0
576 703 0
576 -577 0
-576 577 -703 0
576 0
-577 -698 0
-577 -688 0
577 688 698 0
578 708 0
578 -579 0
-578 579 -708 0
578 0
-579 -688 0
-579 580 0
579 -580 688 0
-580 -698 0
-580 -703 0
580 703 698 0
581 717 0
581 -582 0
-581 582 -717 0
581 0
-582 -688 0
-582 583 0
582 -583 688 0
-583 -698 0
-583 584 0
583 -584 698 0
-584 -703 0
-584 -708 0
584 708 703 0
585 722 0
585 -586 0
-585 586 -722 0
585 0
-586 -688 0
-586 587 0
586 -587 688 0
-587 -698 0
-587 588 0
587 -588 698 0
-588 -703 0
-588 589 0
588 -589 703 0
-589 -708 0
-589 -717 0
589 717 708 0
590 727 0
590 -591 0
-590 591 -727 0
590 0
-591 -688 0
-591 592 0
591 -592 688 0
-592 -698 0
-592 593 0
592 -593 698 0
-593 -703 0
-593 594 0
593 -594 703 0
-594 -708 0
-594 595 0
594 -595 708 0
-595 -717 0
-595 -722 0
595 722 717 0
596 732 0
596 -597 0
-596 597 -732 0
596 0
-597 -688 0
-597 598 0
597 -598 688 0
-598 -698 0
-598 599 0
598 -599 698 0
-599 -703 0
-599 600 0
599 -600 703 0
-600 -708 0
-600 601 0
600 -601 708 0
-601 -717 0
-601 602 0
601 -602 717 0
-602 -722 0
-602 -727 0
602 727 722 0
603 737 0
603 -604 0
-603 604 -737 0
603 0
-604 -688 0
-604 605 0
604 -605 688 0
-605 -698 0
-605 606 0
605 -606 698 0
-606 -703 0
-606 607 0
606 -607 703 0
-607 -708 0
-607 608 0
607 -608 708 0
-608 -717 0
-608 609 0
608 -609 717 0
-609 -722 0
-609 610 0
609 -610 722 0
-610 -727 0
-610 -732 0
610 732 727 0
611 747 0
611 -612 0
-611 612 -747 0
611 0
-612 -688 0
-612 613 0
612 -613 688 0
-613 -698 0
-613 614 0
613 -614 698 0
-614 -703 0
-614 615 0
614 -615 703 0
-615 -708 0
-615 616 0
615 -616 708 0
-616 -717 0
-616 617 0
616 -617 717 0
-617 -722 0
-617 618 0
617 -618 722 0
-618 -727 0
-618 619 0
618 -619 727 0
-619 -732 0
-619 -737 0
619 737 732 0
620 752 0
620 -621 0
-620 621 -752 0
620 0
-621 -688 0
-621 622 0
621 -622 688 0
-622 -698 0
-622 623 0
622 -623 698 0
-623 -703 0
-623 624 0
623 -624 703 0
-624 -708 0
-624 625 0
624 -625 708 0
-625 -717 0
-625 626 0
625 -626 717 0
-626 -722 0
-626 627 0
626 -627 722 0
-627 -727 0
-627 628 0
627 -628 727 0
-628 -732 0
-628 629 0
628 -629 732 0
-629 -737 0
-629 -747 0
629 747 737 0
630 758 0
630 -631 0
-630 631 -758 0
630 0
-631 -688 0
-631 632 0
631 -632 688 0
-632 -698 0
-632 633 0
632 -633 698 0
-633 -703 0
-633 634 0
633 -634 703 0
-634 -708 0
-634 635 0
634 -635 708 0
-635 -717 0
-635 636 0
635 -636 717 0
-636 -722 0
-636 637 0
636 -637 722 0
-637 -727 0
-637 638 0
637 -638 727 0
-638 -732 0
-638 639 0
638 -639 732 0
-639 -737 0
-639 640 0
639 -640 737 0
-640 -747 0
-640 -752 0
640 752 747 0
641 764 0
641 -642 0
-641 642 -764 0
641 0
-642 -688 0
-642 643 0
642 -643 688 0
-643 -698 0
-643 644 0
643 -644 698 0
-644 -703 0
-644 645 0
644 -645 703 0
-645 -708 0
-645 646 0
645 -646 708 0
-646 -717 0
-646 647 0
646 -647 717 0
-647 -722 0
-647 648 0
647 -648 722 0
-648 -727 0
-648 649 0
648 -649 727 0
-649 -732 0
-649 650 0
649 -650 732 0
-650 -737 0
-650 651 0
650 -651 737 0
-651 -747 0
-651 652 0
651 -652 747 0
-652 -752 0
-652 -758 0
652 758 752 0
653 771 0
653 -654 0
-653 654 -771 0
653 0
-654 -688 0
-654 655 0
654 -655 688 0
-655 -698 0
-655 656 0
655 -656 698 0
-656 -703 0
-656 657 0
656 -657 703 0
-657 -708 0
-657 658 0
657 -658 708 0
-658 -717 0
-658 659 0
658 -659 717 0
-659 -722 0
-659 660 0
659 -660 722 0
-660 -727 0
-660 661 0
660 -661 727 0
-661 -732 0
-661 662 0
661 -662 732 0
-662 -737 0
-662 663 0
662 -663 737 0
-663 -747 0
-663 664 0
663 -664 747 0
-664 -752 0
-664 665 0
664 -665 752 0
-665 -758 0
-665 -764 0
665 764 758 0
666 777 0
666 -667 0
-666 667 -777 0
666 0
-667 -688 0
-667 668 0
667 -668 688 0
-668 -698 0
-668 669 0
668 -669 698 0
-669 -703 0
-669 670 0
669 -670 703 0
-670 -708 0
-670 671 0
670 -671 708 0
-671 -717 0
-671 672 0
671 -672 717 0
-672 -722 0
-672 673 0
672 -673 722 0
-673 -727 0
-673 674 0
673 -674 727 0
-674 -732 0
-674 675 0
674 -675 732 0
-675 -737 0
-675 676 0
675 -676 737 0
-676 -747 0
-676 677 0
676 -677 747 0
-677 -752 0
-677 678 0
677 -678 752 0
-678 -758 0
-678 679 0
678 -679 758 0
-679 -764 0
-679 -771 0
679 771 764 0
680 -681 0
680 -684 0
-680 684 681 0
680 0
-681 138 0
-681 767 0
681 -767 -138 0
684 -685 0
684 -689 0
-684 689 685 0
-685 110 0
-685 767 0
685 -767 -110 0
689 -690 0
689 -694 0
-689 694 690 0
-690 142 0
-690 767 0
690 -767 -142 0
694 -695 0
694 -699 0
-694 699 695 0
-695 146 0
-695 767 0
695 -767 -146 0
699 -700 0
699 -704 0
-699 704 700 0
-700 150 0
-700 767 0
700 -767 -150 0
704 -705 0
704 -709 0
-704 709 705 0
-705 154 0
-705 767 0
705 -767 -154 0
709 -710 0
709 -713 0
-709 713 710 0
-710 158 0
-710 767 0
710 -767 -158 0
713 -714 0
713 -718 0
-713 718 714 0
-714 114 0
-714 767 0
714 -767 -114 0
718 -719 0
718 -723 0
-718 723 719 0
-719 161 0
-719 767 0
719 -767 -161 0
723 -724 0
723 -728 0
-723 728 724 0
-724 76 0
-724 773 0
724 -773 -76 0
728 -729 0
728 -733 0
-728 733 729 0
-729 100 0
-729 767 0
729 -767 -100 0
733 -734 0
733 -738 0
-733 738 734 0
-734 118 0
-734 767 0
734 -767 -118 0
738 -739 0
738 -742 0
-738 742 739 0
-739 80 0
-739 773 0
739 -773 -80 0
742 -743 0
742 -748 0
-742 748 743 0
-743 122 0
-743 767 0
743 -767 -122 0
748 -749 0
748 -753 0
-748 753 749 0
-749 84 0
-749 773 0
749 -773 -84 0
753 -754 0
753 -759 0
-753 759 754 0
-754 88 0
-754 767 0
754 -767 -88 0
759 -760 0
759 -765 0
-759 765 760 0
-760 126 0
-760 767 0
760 -767 -126 0
765 -766 0
765 -772 0
-765 772 766 0
-766 129 0
-766 767 0
766 -767 -129 0
-772 91 0
-772 773 0
772 -773 -91 0
